p cnf 73 156
-2 -3 -4 0
-1 -3 -4 0
-1 -2 -4 0
-1 -2 -3 0
-6 -7 -8 0
-5 -7 -8 0
-5 -6 -8 0
-5 -6 -7 0
-10 -11 -12 0
-9 -11 -12 0
-9 -10 -12 0
-9 -10 -11 0
-14 -15 -16 0
-13 -15 -16 0
-13 -14 -16 0
-13 -14 -15 0
-18 -19 -20 0
-17 -19 -20 0
-17 -18 -20 0
-17 -18 -19 0
-22 -23 -24 0
-21 -23 -24 0
-21 -22 -24 0
-21 -22 -23 0
-26 -27 -28 0
-25 -27 -28 0
-25 -26 -28 0
-25 -26 -27 0
-30 -31 -32 0
-29 -31 -32 0
-29 -30 -32 0
-29 -30 -31 0
-34 -35 -36 0
-33 -35 -36 0
-33 -34 -36 0
-33 -34 -35 0
-38 -39 -40 0
-37 -39 -40 0
-37 -38 -40 0
-37 -38 -39 0
-42 -43 -44 0
-41 -43 -44 0
-41 -42 -44 0
-41 -42 -43 0
-46 -47 -48 0
-45 -47 -48 0
-45 -46 -48 0
-45 -46 -47 0
-50 -51 -52 0
-49 -51 -52 0
-49 -50 -52 0
-49 -50 -51 0
-54 -55 -56 0
-53 -55 -56 0
-53 -54 -56 0
-53 -54 -55 0
-58 -59 -60 0
-57 -59 -60 0
-57 -58 -60 0
-57 -58 -59 0
-62 -63 -64 0
-61 -63 -64 0
-61 -62 -64 0
-61 -62 -63 0
-66 -67 -68 0
-65 -67 -68 0
-65 -66 -68 0
-65 -66 -67 0
-69 -70 -71 0
-69 -70 -72 0
-69 -70 -73 0
-69 -71 -72 0
-69 -71 -73 0
-69 -72 -73 0
-70 -71 -72 0
-70 -71 -73 0
-70 -72 -73 0
-71 -72 -73 0
63 3 38 0
8 3 38 0
8 63 38 0
8 63 3 0
27 15 70 0
21 15 70 0
21 27 70 0
21 27 15 0
67 50 71 0
44 50 71 0
44 67 71 0
44 67 50 0
35 52 37 0
29 52 37 0
29 35 37 0
29 35 52 0
46 23 66 0
10 23 66 0
10 46 66 0
10 46 23 0
54 69 39 0
45 69 39 0
45 54 39 0
45 54 69 0
26 20 40 0
12 20 40 0
12 26 40 0
12 26 20 0
59 72 11 0
36 72 11 0
36 59 11 0
36 59 72 0
53 30 9 0
4 30 9 0
4 53 9 0
4 53 30 0
19 62 16 0
43 62 16 0
43 19 16 0
43 19 62 0
47 61 22 0
32 61 22 0
32 47 22 0
32 47 61 0
49 56 25 0
6 56 25 0
6 49 25 0
6 49 56 0
51 60 18 0
2 60 18 0
2 51 18 0
2 51 60 0
24 41 33 0
1 41 33 0
1 24 33 0
1 24 41 0
55 65 34 0
13 65 34 0
13 55 34 0
13 55 65 0
31 73 5 0
17 73 5 0
17 31 5 0
17 31 73 0
57 68 28 0
64 68 28 0
64 57 28 0
64 57 68 0
14 7 48 0
14 7 58 0
14 7 42 0
14 48 58 0
14 48 42 0
14 58 42 0
7 48 58 0
7 48 42 0
7 58 42 0
48 58 42 0
